27 6
14 10 11 14 15 11
1 0 0 0 0 0 0 3 2 3 4
9 7 3 7 3 7 8 3 5 7 8
9 8 4 1 2 3 8 4 27 6 7 8
8 9 2 3 9 9 9 4 5 6 7 8
8 9 6 10 7 6 9 3 10 11 12
6 5 4 9 6 9 2 4 9 10 11 12
5 2 1 1 3 5 4 4 9 10 11 12
6 6 6 7 9 3 9 3 9 11 12
6 10 10 6 8 9 10 4 13 14 15 16
6 6 4 9 8 5 9 4 13 14 15 16
8 10 6 10 4 10 4 3 13 14 15
1 10 5 8 6 5 7 3 14 15 16
9 7 10 6 9 8 2 4 17 18 19 20
8 9 1 2 8 9 9 4 17 18 19 20
10 5 9 9 7 3 4 3 17 18 19
1 1 1 2 7 3 3 4 17 18 19 20
3 8 6 1 6 7 8 4 21 22 23 24
9 1 5 10 5 6 8 4 21 22 23 24
7 8 10 1 8 10 3 4 21 22 23 24
1 5 1 2 10 9 1 4 21 22 23 24
8 8 2 4 7 9 1 2 25 26
9 8 5 7 7 10 2 2 25 26
4 10 5 10 2 10 3 2 25 26
1 3 2 4 7 10 8 2 25 26
6 8 5 5 5 3 5 1 27
3 8 4 3 10 7 1 1 27
0 0 0 0 0 0 0 0
